letting n =  10
letting blocks =  [[1, 1], [1, 9], [2, 2], [2, 3], [2, 5], [2, 6], [2, 10], [3, 7], [4, 1], [4, 4], [4, 6], [4, 8], [4, 9], [5, 1], [5, 5], [5, 7], [6, 1], [6, 3], [6, 5], [7, 3], [7, 4], [7, 10], [8, 5], [9, 8], [10, 1], [10, 5], [10, 6], [10, 9]]
